
Gurobi 12.0.2 (win64) logging started Thu Jun  5 20:25:14 2025

Set parameter LogFile to value "C:\Ioana\_uni\honours\slp\algorithm\Main_files\results\paracetamol_final_final\Task_002_Sample001_irr_gurobi.log"
Gurobi Optimizer version 12.0.2 build v12.0.2rc0 (win64 - Windows 11.0 (26100.2))

CPU model: Intel(R) Core(TM) Ultra 5 125H, instruction set [SSE2|AVX|AVX2]
Thread count: 14 physical cores, 18 logical processors, using up to 18 threads

Non-default parameters:
TimeLimit  2200

Optimize a model with 47234 rows, 34501 columns and 146705 nonzeros
Model fingerprint: 0x000bed1d
Variable types: 17253 continuous, 17248 integer (17248 binary)
Coefficient statistics:
  Matrix range     [1e-04, 8e+04]
  Objective range  [4e-04, 9e-01]
  Bounds range     [1e+00, 1e+03]
  RHS range        [1e+00, 1e+00]
Found heuristic solution: objective 1.1577035
Presolve removed 33957 rows and 23902 columns
Presolve time: 0.40s
Presolved: 13277 rows, 10599 columns, 42926 nonzeros
Variable types: 5254 continuous, 5345 integer (5345 binary)

Root relaxation: objective 4.317031e-05, 289 iterations, 0.01 seconds (0.02 work units)

    Nodes    |    Current Node    |     Objective Bounds      |     Work
 Expl Unexpl |  Obj  Depth IntInf | Incumbent    BestBd   Gap | It/Node Time

     0     0    0.00004    0    4    1.15770    0.00004   100%     -    0s
H    0     0                       0.0431703    0.00004   100%     -    0s
     0     0     cutoff    0         0.04317    0.04317  0.00%     -    0s

Cutting planes:
  Gomory: 2
  Implied bound: 2
  MIR: 6
  Flow cover: 10
  Flow path: 1
  Network: 1
  Relax-and-lift: 1

Explored 1 nodes (386 simplex iterations) in 0.53 seconds (0.49 work units)
Thread count was 18 (of 18 available processors)

Solution count 2: 0.0431703 1.1577 

Optimal solution found (tolerance 1.00e-04)
Best objective 4.317030538964e-02, best bound 4.317030538964e-02, gap 0.0000%
